tsp_instances/TSP20/instance102.tsp
NODE_COORD_SECTION
0 155 186
1 184 136
2 137 109
3 4 34
4 51 168
5 169 175
6 198 172
7 140 29
8 148 86
9 115 95
10 154 16
11 109 160
12 77 5
13 169 80
14 141 25
15 96 65
16 128 65
17 103 36
18 92 104
19 83 12
