tsp_instances/TSP20/instance102.opt.tour
TOUR_SECTION
1
6
7
2
14
9
3
10
19
16
17
11
15
8
18
20
13
4
5
12
-1